lbl,CUST NO.,READY TIME,XCOORD.,YCOORD.,DEMAND,DUE DATE,SERVICE TIME
10,357,68,130,149,17,78,10
10,155,90,149,176,16,100,10
10,361,155,129,176,18,165,10
10,294,173,135,171,27,183,10
10,318,220,137,158,3,230,10
10,32,281,143,179,24,291,10
10,271,328,148,157,21,338,10
10,277,376,146,166,24,386,10
10,19,428,134,157,20,438,10
10,210,462,124,165,24,472,10
10,81,488,139,158,9,498,10
